lbl,CUST NO.,READY TIME,XCOORD.,YCOORD.,DEMAND,DUE DATE,SERVICE TIME
19,164,49,97,29,30,346,90
19,66,89,97,28,20,192,90
19,12,115,95,35,10,333,90
19,147,152,96,26,10,312,90
19,160,285,99,26,40,366,90
19,47,327,99,28,30,508,90
19,91,486,98,31,20,534,90
19,70,556,103,34,30,657,90
